p cnf 194 683
c t mc
3 1 0
3 -2 0
-1 2 -3 0
5 3 0
5 -4 0
-3 4 -5 0
5 -6 -7 0
-5 6 -7 0
5 6 7 0
-5 -6 7 0
8 -3 0
8 -7 0
3 7 -8 0
-4 -10 -11 0
4 10 -11 0
-4 10 11 0
4 -10 11 0
14 -12 0
14 -13 0
12 13 -14 0
-15 14 0
-15 6 0
-14 -6 15 0
-11 15 -16 0
11 -15 -16 0
-11 -15 16 0
11 15 16 0
-18 17 0
-18 -10 0
-17 10 18 0
19 -16 0
19 -18 0
16 18 -19 0
-21 -19 0
-21 -20 0
19 20 21 0
9 21 -22 0
-9 -21 -22 0
9 -21 22 0
-9 21 22 0
23 4 0
23 22 0
-4 -22 -23 0
-6 -9 -24 0
6 9 -24 0
-6 9 24 0
6 -9 24 0
-25 -24 0
-25 -4 0
24 4 25 0
25 11 -26 0
-25 -11 -26 0
25 -11 26 0
-25 11 26 0
23 26 -27 0
-23 -26 -27 0
23 -26 27 0
-23 26 27 0
-28 8 0
-28 -27 0
-8 27 28 0
11 -29 0
-11 -29 0
-30 -29 0
-30 -24 0
29 24 30 0
31 -28 0
31 -30 0
28 30 -31 0
33 -13 0
33 1 0
13 -1 -33 0
-33 -11 -34 0
33 11 -34 0
-33 11 34 0
33 -11 34 0
34 33 -35 0
-34 -33 -35 0
34 -33 35 0
-34 33 35 0
-36 -32 0
-36 -35 0
32 35 36 0
38 -36 0
38 -37 0
36 37 -38 0
-39 -38 0
-39 19 0
38 -19 39 0
-21 -39 -40 0
21 39 -40 0
-21 39 40 0
21 -39 40 0
41 -32 0
41 11 0
32 -11 -41 0
-43 -41 0
-43 42 0
41 -42 43 0
-44 -43 0
-44 -9 0
43 9 44 0
1 -11 -46 0
-1 11 -46 0
1 11 46 0
-1 -11 46 0
-47 1 0
-47 -46 0
-1 46 47 0
45 -47 -48 0
-45 47 -48 0
45 47 48 0
-45 -47 48 0
49 45 0
49 48 0
-45 -48 -49 0
51 -50 0
51 17 0
50 -17 -51 0
-52 -51 0
-52 -32 0
51 32 52 0
-54 -15 0
-54 53 0
15 -53 54 0
-54 -4 -55 0
54 4 -55 0
-54 4 55 0
54 -4 55 0
-52 55 -56 0
52 -55 -56 0
-52 -55 56 0
52 55 56 0
-57 -17 0
-57 -56 0
17 56 57 0
-58 -49 0
-58 57 0
49 -57 58 0
59 44 0
59 58 0
-44 -58 -59 0
61 -60 0
61 22 0
60 -22 -61 0
-62 -59 0
-62 -61 0
59 61 62 0
63 40 0
63 -62 0
-40 62 -63 0
32 -19 -64 0
-32 19 -64 0
32 19 64 0
-32 -19 64 0
25 -49 -65 0
-25 49 -65 0
25 49 65 0
-25 -49 65 0
-66 -49 0
-66 65 0
49 -65 66 0
-60 66 -67 0
60 -66 -67 0
-60 -66 67 0
60 66 67 0
-64 -67 -68 0
64 67 -68 0
-64 67 68 0
64 -67 68 0
46 60 -70 0
-46 -60 -70 0
46 -60 70 0
-46 60 70 0
-71 69 0
-71 -70 0
-69 70 71 0
70 9 -72 0
-70 -9 -72 0
70 -9 72 0
-70 9 72 0
74 72 0
74 -73 0
-72 73 -74 0
75 46 0
75 -74 0
-46 74 -75 0
-71 -75 -76 0
71 75 -76 0
-71 75 76 0
71 -75 76 0
-77 -68 0
-77 76 0
68 -76 77 0
-78 -63 0
-78 77 0
63 -77 78 0
23 -19 -79 0
-23 19 -79 0
23 19 79 0
-23 -19 79 0
-80 70 0
-80 -4 0
-70 4 80 0
-81 12 0
-81 80 0
-12 -80 81 0
-21 -81 -82 0
21 81 -82 0
-21 81 82 0
21 -81 82 0
-79 82 -83 0
79 -82 -83 0
-79 -82 83 0
79 82 83 0
-78 -83 -84 0
78 83 -84 0
-78 83 84 0
78 -83 84 0
-85 -31 0
-85 84 0
31 -84 85 0
-86 74 0
-86 -81 0
-74 81 86 0
87 45 0
87 49 0
-45 -49 -87 0
88 86 0
88 87 0
-86 -87 -88 0
-89 -50 0
-89 87 0
50 -87 89 0
-90 88 0
-90 89 0
-88 -89 90 0
-91 4 0
-91 -71 0
-4 71 91 0
92 37 0
92 91 0
-37 -91 -92 0
-93 90 0
-93 92 0
-90 -92 93 0
94 -15 0
94 -15 0
15 -94 0
-95 -93 0
-95 94 0
93 -94 95 0
72 -12 -96 0
-72 12 -96 0
72 12 96 0
-72 -12 96 0
97 -53 0
97 9 0
53 -9 -97 0
-98 -97 0
-98 -91 0
97 91 98 0
-15 -98 -99 0
15 98 -99 0
-15 98 99 0
15 -98 99 0
100 96 0
100 99 0
-96 -99 -100 0
101 91 0
101 -14 0
-91 14 -101 0
-102 50 0
-102 43 0
-50 -43 102 0
-36 -102 -103 0
36 102 -103 0
-36 102 103 0
36 -102 103 0
-104 -103 0
-104 -80 0
103 80 104 0
105 104 0
105 11 0
-104 -11 -105 0
66 44 -107 0
-66 -44 -107 0
66 -44 107 0
-66 44 107 0
106 -107 -108 0
-106 107 -108 0
106 107 108 0
-106 -107 108 0
109 105 0
109 -108 0
-105 108 -109 0
110 -101 0
110 -109 0
101 109 -110 0
-14 -50 -111 0
14 50 -111 0
-14 50 111 0
14 -50 111 0
-112 33 0
-112 12 0
-33 -12 112 0
111 112 -113 0
-111 -112 -113 0
111 -112 113 0
-111 112 113 0
114 102 0
114 -24 0
-102 24 -114 0
115 -12 0
115 -3 0
12 3 -115 0
-116 80 0
-116 24 0
-80 -24 116 0
-117 -81 0
-117 116 0
81 -116 117 0
-118 115 0
-118 117 0
-115 -117 118 0
-119 -12 0
-119 9 0
12 -9 119 0
-120 53 0
-120 115 0
-53 -115 120 0
-121 -119 0
-121 -120 0
119 120 121 0
-18 -22 -122 0
18 22 -122 0
-18 22 122 0
18 -22 122 0
-123 -121 0
-123 122 0
121 -122 123 0
124 -102 0
124 4 0
102 -4 -124 0
125 -37 0
125 -81 0
37 81 -125 0
126 -125 0
126 69 0
125 -69 -126 0
-124 -126 -127 0
124 126 -127 0
-124 126 127 0
124 -126 127 0
-123 -127 -128 0
123 127 -128 0
-123 127 128 0
123 -127 128 0
-129 -81 0
-129 -33 0
81 33 129 0
-130 129 0
-130 -56 0
-129 56 130 0
131 42 0
131 130 0
-42 -130 -131 0
-132 128 0
-132 131 0
-128 -131 132 0
133 118 0
133 132 0
-118 -132 -133 0
-29 -134 -135 0
29 134 -135 0
-29 134 135 0
29 -134 135 0
-136 -133 0
-136 -135 0
133 135 136 0
-114 -136 -137 0
114 136 -137 0
-114 136 137 0
114 -136 137 0
-138 -113 0
-138 -137 0
113 137 138 0
-139 -110 0
-139 138 0
110 -138 139 0
-140 100 0
-140 139 0
-100 -139 140 0
-141 -95 0
-141 140 0
95 -140 141 0
41 20 -142 0
-41 -20 -142 0
41 -20 142 0
-41 20 142 0
-55 -66 -143 0
55 66 -143 0
-55 66 143 0
55 -66 143 0
144 -125 0
144 -4 0
125 4 -144 0
145 41 0
145 -45 0
-41 45 -145 0
145 47 -146 0
-145 -47 -146 0
145 -47 146 0
-145 47 146 0
147 -144 0
147 -146 0
144 146 -147 0
-143 -147 -148 0
143 147 -148 0
-143 147 148 0
143 -147 148 0
149 45 0
149 148 0
-45 -148 -149 0
142 149 -150 0
-142 -149 -150 0
142 -149 150 0
-142 149 150 0
151 -46 0
151 14 0
46 -14 -151 0
-10 -151 -152 0
10 151 -152 0
-10 151 152 0
10 -151 152 0
-153 -10 0
-153 12 0
10 -12 153 0
-152 -153 -154 0
152 153 -154 0
-152 153 154 0
152 -153 154 0
155 -150 0
155 154 0
150 -154 -155 0
-16 -71 -156 0
16 71 -156 0
-16 71 156 0
16 -71 156 0
-157 -87 0
-157 156 0
87 -156 157 0
158 97 0
158 -157 0
-97 157 -158 0
24 -144 -159 0
-24 144 -159 0
24 144 159 0
-24 -144 159 0
-160 -151 0
-160 159 0
151 -159 160 0
161 -160 0
161 97 0
160 -97 -161 0
-162 -158 0
-162 161 0
158 -161 162 0
-163 11 0
-163 44 0
-11 -44 163 0
164 -163 0
164 -71 0
163 71 -164 0
165 -22 0
165 -9 0
22 9 -165 0
166 165 0
166 -60 0
-165 60 -166 0
167 -6 0
167 -166 0
6 166 -167 0
168 -164 0
168 167 0
164 -167 -168 0
169 -162 0
169 168 0
162 -168 -169 0
-170 26 0
-170 -163 0
-26 163 170 0
171 -170 0
171 52 0
170 -52 -171 0
13 48 -172 0
-13 -48 -172 0
13 -48 172 0
-13 48 172 0
-173 171 0
-173 172 0
-171 -172 173 0
-174 -14 0
-174 54 0
14 -54 174 0
174 -60 -175 0
-174 60 -175 0
174 60 175 0
-174 -60 175 0
-176 -173 0
-176 -175 0
173 175 176 0
-177 -169 0
-177 176 0
169 -176 177 0
-178 -155 0
-178 177 0
155 -177 178 0
35 75 -179 0
-35 -75 -179 0
35 -75 179 0
-35 75 179 0
-180 -14 0
-180 -6 0
14 6 180 0
-180 -41 -181 0
180 41 -181 0
-180 41 181 0
180 -41 181 0
182 179 0
182 181 0
-179 -181 -182 0
134 45 -183 0
-134 -45 -183 0
134 -45 183 0
-134 45 183 0
-34 71 -184 0
34 -71 -184 0
-34 -71 184 0
34 71 184 0
185 55 0
185 115 0
-55 -115 -185 0
186 184 0
186 185 0
-184 -185 -186 0
-187 186 0
-187 156 0
-186 -156 187 0
188 41 0
188 -15 0
-41 15 -188 0
189 187 0
189 -188 0
-187 188 -189 0
190 -183 0
190 -189 0
183 189 -190 0
182 190 -191 0
-182 -190 -191 0
182 -190 191 0
-182 190 191 0
-178 -191 -192 0
178 191 -192 0
-178 191 192 0
178 -191 192 0
-193 -141 0
-193 -192 0
141 192 193 0
85 193 -194 0
-85 -193 -194 0
85 -193 194 0
-85 193 194 0
194 62 190 169 0
-73 -102 112 -142 -25 62 0
186 80 0
-17 -192 141 -73 -58 0
79 183 -118 -14 178 181 167 0
92 82 192 164 0
23 -32 -14 -131 -107 -147 0
-109 -77 151 -36 187 -33 182 181 0
135 194 -75 54 -72 31 -141 -7 0
23 -100 83 0
-97 -117 129 -76 112 -168 188 0
-46 -44 185 -100 0
75 162 -105 -48 30 80 0
132 148 -12 -84 99 67 -22 -163 -125 144 0
-145 -80 -156 -180 128 27 -35 0
-188 -23 138 173 0
-160 24 -92 52 48 84 -111 0
58 143 0
188 147 28 -32 -166 16 -138 0
142 -95 -50 161 90 -48 -146 41 0
122 -62 180 0
115 -190 105 -46 -191 23 -174 0
-63 -181 15 46 0
-94 -178 -34 0
6 -80 71 -95 0
112 -10 -99 49 -116 69 0
-25 17 144 110 -55 0
-146 -57 0
77 -16 181 189 -47 -95 59 -186 0
-153 192 97 -33 101 100 61 0
44 155 49 -53 -9 133 0
161 189 184 0
-64 -68 -81 -146 16 0
-127 -151 0
-143 161 -97 -160 14 -121 -7 -182 -86 82 0
191 -115 -57 -16 -9 -8 107 0
147 135 -64 179 2 -63 117 0
110 -85 1 0
110 11 -194 185 66 96 -157 142 -168 0
86 160 -13 -95 178 174 77 187 101 158 0
111 -105 -40 60 104 0
86 56 93 54 -105 -52 -99 0
-190 108 0
-105 160 -145 -171 30 0
98 -174 191 156 -187 -85 -31 -131 0
-167 75 6 0
183 -86 145 -43 0
185 -135 -8 156 -15 0
-108 -172 42 0
-185 81 -15 -87 -138 0
34 95 -103 -50 -53 -136 -120 0
96 118 120 0
-59 -185 -20 -24 9 -153 0
32 -90 165 -39 0
-142 -126 -75 10 31 0
146 91 7 82 -130 -112 0
-119 -172 141 -161 188 0
40 13 24 49 93 26 -23 0
-83 49 -107 -125 -173 0
109 -17 180 0
-102 163 22 -20 143 -165 -74 -190 80 0
98 189 194 -181 -39 0
-112 -63 -51 -165 0
23 168 -86 -77 167 114 0
-144 -141 22 71 190 163 -39 -82 9 0
74 -41 62 76 -75 168 182 0
-124 35 171 42 -23 0
-97 88 -159 57 -81 0
173 -140 -156 167 48 -1 -171 186 0
56 119 149 -93 -194 0
-130 166 83 56 -122 66 108 -33 0
171 -2 -193 -131 165 173 -90 128 0
-1 -111 159 32 44 143 24 -156 -90 50 0
-27 21 173 1 60 188 52 138 0
-115 82 -94 0
152 -170 173 -69 -61 175 78 174 -167 0
-13 -119 -86 158 -152 0
-52 -146 -178 -126 -61 -105 171 160 -28 -57 0
17 -33 0
-189 -3 0
130 -87 111 136 0
-5 154 0
30 159 113 -29 -10 -39 -33 0
-156 -71 119 -149 111 -81 -134 -89 0
-184 -105 74 106 70 0
130 -138 100 -92 16 143 120 0
174 136 137 169 -3 -72 -91 -178 0
-24 44 0
133 -1 -78 -65 109 -57 -40 68 -76 156 0
-148 76 0
-65 -71 -112 133 100 0
137 -194 150 0
25 -26 27 -74 0
-92 -84 187 -77 35 40 138 -72 -108 0
-180 -19 108 117 188 106 -185 -90 -76 -24 0
186 108 181 151 102 -112 -103 -99 -174 -121 0
77 -189 120 -4 0
-150 -94 -45 145 -83 71 177 -117 0
74 -81 -155 174 179 116 -26 -79 91 0
151 -103 -163 -168 31 79 -56 -32 -139 0
-74 187 179 -150 -107 64 0
101 84 183 158 -43 123 -103 -185 -127 -163 0
-97 163 -162 67 -139 0
38 109 74 -171 -144 88 0
-29 52 130 -99 -177 49 0
-81 64 -153 -92 -143 108 138 48 102 95 0
-29 14 0
59 167 67 46 122 73 0
-50 -142 0
194 0
